pymatgen 4.7.6+ generated KPOINTS with grid density = 339 / atom
0
Gamma
9 9 1
