pymatgen 4.7.6+ generated KPOINTS with grid density = 339 / atom
0
Gamma
14 14 1
