Mo1 S2                                  
   1.00000000000000     
     3.1845729999999999    0.0000000000000000    0.0000000000000000
    -1.5922870000000000    2.7579210000000001    0.0000000000000000
     0.0000000000000000    0.0000000000000000   25.0000000000000000
   Mo   S 
     1     2
Direct
  0.6633552596292934  0.3333382454514141  0.1587811294635335
  0.3300873966716047  0.6667845968951482  0.0963321262105310
  0.3298903436991071  0.6665441576534344  0.2212567443259384
 
  0.00000000E+00  0.00000000E+00  0.00000000E+00
  0.00000000E+00  0.00000000E+00  0.00000000E+00
  0.00000000E+00  0.00000000E+00  0.00000000E+00
