B1 N1                                   
   1.00000000000000     
     2.5125099999999998    0.0000000000000000    0.0000000000000000
    -1.2562549999999999    2.1758970000000000    0.0000000000000000
     0.0000000000000000    0.0000000000000000   20.0000000000000000
   B    N 
     1     1
Direct
  0.6614675235054416  0.3384899051585882  0.4949891730595271
  0.3285324764945602  0.6715100948414170  0.4950108269404749
 
  0.00000000E+00  0.00000000E+00  0.00000000E+00
  0.00000000E+00  0.00000000E+00  0.00000000E+00
