ALGO = Normal
EDIFF = 5e-05
ENCUT = 520
#IBRION = 2
ICHARG = 11
#ISIF = 2
ISMEAR = 0
#ISPIN = 2
LORBIT = 11
LREAL = Auto
LWAVE = False
NELM = 150
#NSW = 99
PREC = Accurate
SIGMA = 0.05
LCHARG = .FLASE.
#EDIFFG = -0.02
IVDW = 12
NPAR = 4
SYMPREC = 1e-07
LDIPOL = .TRUE.
IDIPOL = 3
LSORBIT = .TRUE.
#LVHAR = .TRUE.
ISYM = 0
GGA_COMPAT = .FALSE.
BMIX = 0.01
AMIX = 0.1
