Non SCF run along symmetry lines
140
Reciprocal
0.0 0.0 0.0 1 \Gamma
0.0227272727273 -1.73472347598e-18 0.0 1 
0.0454545454545 -3.46944695195e-18 0.0 1 
0.0681818181818 -6.93889390391e-18 0.0 1 
0.0909090909091 -6.93889390391e-18 0.0 1 
0.113636363636 6.93889390391e-18 0.0 1 
0.136363636364 -1.38777878078e-17 0.0 1 
0.159090909091 -1.38777878078e-17 0.0 1 
0.181818181818 -1.38777878078e-17 0.0 1 
0.204545454545 0.0 0.0 1 
0.227272727273 1.38777878078e-17 0.0 1 
0.25 -1.38777878078e-17 0.0 1 
0.272727272727 -2.77555756156e-17 0.0 1 
0.295454545455 -2.77555756156e-17 0.0 1 
0.318181818182 -2.77555756156e-17 0.0 1 
0.340909090909 0.0 0.0 1 
0.363636363636 -2.77555756156e-17 0.0 1 
0.386363636364 0.0 0.0 1 
0.409090909091 0.0 0.0 1 
0.431818181818 0.0 0.0 1 
0.454545454545 2.77555756156e-17 0.0 1 
0.477272727273 -2.77555756156e-17 0.0 1 
0.5 -2.77555756156e-17 0.0 1 M
0.5 -2.77555756156e-17 0.0 1 M
0.487179487179 0.025641025641 0.0 1 
0.474358974359 0.0512820512821 0.0 1 
0.461538461538 0.0769230769231 0.0 1 
0.448717948718 0.102564102564 0.0 1 
0.435897435897 0.128205128205 0.0 1 
0.423076923077 0.153846153846 0.0 1 
0.410256410256 0.179487179487 0.0 1 
0.397435897436 0.205128205128 0.0 1 
0.384615384615 0.230769230769 0.0 1 
0.371794871795 0.25641025641 0.0 1 
0.358974358974 0.282051282051 0.0 1 
0.346153846154 0.307692307692 0.0 1 
0.333333333333 0.333333333333 0.0 1 K
0.333333333333 0.333333333333 0.0 1 K
0.320512820513 0.320512820513 0.0 1 
0.307692307692 0.307692307692 0.0 1 
0.294871794872 0.294871794872 0.0 1 
0.282051282051 0.282051282051 0.0 1 
0.269230769231 0.269230769231 0.0 1 
0.25641025641 0.25641025641 0.0 1 
0.24358974359 0.24358974359 0.0 1 
0.230769230769 0.230769230769 0.0 1 
0.217948717949 0.217948717949 0.0 1 
0.205128205128 0.205128205128 0.0 1 
0.192307692308 0.192307692308 0.0 1 
0.179487179487 0.179487179487 0.0 1 
0.166666666667 0.166666666667 0.0 1 
0.153846153846 0.153846153846 0.0 1 
0.141025641026 0.141025641026 0.0 1 
0.128205128205 0.128205128205 0.0 1 
0.115384615385 0.115384615385 0.0 1 
0.102564102564 0.102564102564 0.0 1 
0.0897435897436 0.0897435897436 0.0 1 
0.0769230769231 0.0769230769231 0.0 1 
0.0641025641026 0.0641025641026 0.0 1 
0.0512820512821 0.0512820512821 0.0 1 
0.0384615384615 0.0384615384615 0.0 1 
0.025641025641 0.025641025641 0.0 1 
0.0128205128205 0.0128205128205 0.0 1 
0.0 0.0 0.0 1 \Gamma
0.0 0.0 0.0 1 \Gamma
0.0 0.0 0.166666666667 1 
0.0 0.0 0.333333333333 1 
0.0 0.0 0.5 1 A
0.0 0.0 0.5 1 A
0.0227272727273 -1.73472347598e-18 0.5 1 
0.0454545454545 -3.46944695195e-18 0.5 1 
0.0681818181818 -6.93889390391e-18 0.5 1 
0.0909090909091 -6.93889390391e-18 0.5 1 
0.113636363636 6.93889390391e-18 0.5 1 
0.136363636364 -1.38777878078e-17 0.5 1 
0.159090909091 -1.38777878078e-17 0.5 1 
0.181818181818 -1.38777878078e-17 0.5 1 
0.204545454545 0.0 0.5 1 
0.227272727273 1.38777878078e-17 0.5 1 
0.25 -1.38777878078e-17 0.5 1 
0.272727272727 -2.77555756156e-17 0.5 1 
0.295454545455 -2.77555756156e-17 0.5 1 
0.318181818182 -2.77555756156e-17 0.5 1 
0.340909090909 0.0 0.5 1 
0.363636363636 -2.77555756156e-17 0.5 1 
0.386363636364 0.0 0.5 1 
0.409090909091 0.0 0.5 1 
0.431818181818 0.0 0.5 1 
0.454545454545 2.77555756156e-17 0.5 1 
0.477272727273 -2.77555756156e-17 0.5 1 
0.5 -2.77555756156e-17 0.5 1 L
0.5 -2.77555756156e-17 0.5 1 L
0.487179487179 0.025641025641 0.5 1 
0.474358974359 0.0512820512821 0.5 1 
0.461538461538 0.0769230769231 0.5 1 
0.448717948718 0.102564102564 0.5 1 
0.435897435897 0.128205128205 0.5 1 
0.423076923077 0.153846153846 0.5 1 
0.410256410256 0.179487179487 0.5 1 
0.397435897436 0.205128205128 0.5 1 
0.384615384615 0.230769230769 0.5 1 
0.371794871795 0.25641025641 0.5 1 
0.358974358974 0.282051282051 0.5 1 
0.346153846154 0.307692307692 0.5 1 
0.333333333333 0.333333333333 0.5 1 H
0.333333333333 0.333333333333 0.5 1 H
0.320512820513 0.320512820513 0.5 1 
0.307692307692 0.307692307692 0.5 1 
0.294871794872 0.294871794872 0.5 1 
0.282051282051 0.282051282051 0.5 1 
0.269230769231 0.269230769231 0.5 1 
0.25641025641 0.25641025641 0.5 1 
0.24358974359 0.24358974359 0.5 1 
0.230769230769 0.230769230769 0.5 1 
0.217948717949 0.217948717949 0.5 1 
0.205128205128 0.205128205128 0.5 1 
0.192307692308 0.192307692308 0.5 1 
0.179487179487 0.179487179487 0.5 1 
0.166666666667 0.166666666667 0.5 1 
0.153846153846 0.153846153846 0.5 1 
0.141025641026 0.141025641026 0.5 1 
0.128205128205 0.128205128205 0.5 1 
0.115384615385 0.115384615385 0.5 1 
0.102564102564 0.102564102564 0.5 1 
0.0897435897436 0.0897435897436 0.5 1 
0.0769230769231 0.0769230769231 0.5 1 
0.0641025641026 0.0641025641026 0.5 1 
0.0512820512821 0.0512820512821 0.5 1 
0.0384615384615 0.0384615384615 0.5 1 
0.025641025641 0.025641025641 0.5 1 
0.0128205128205 0.0128205128205 0.5 1 
0.0 0.0 0.5 1 A
0.5 -2.77555756156e-17 0.5 1 L
0.5 -2.77555756156e-17 0.333333333333 1 
0.5 -2.77555756156e-17 0.166666666667 1 
0.5 -2.77555756156e-17 0.0 1 M
0.333333333333 0.333333333333 0.0 1 K
0.333333333333 0.333333333333 0.166666666667 1 
0.333333333333 0.333333333333 0.333333333333 1 
0.333333333333 0.333333333333 0.5 1 H
