Non SCF run along symmetry lines
196
Reciprocal
0.0 0.0 0.0 1 \Gamma
0.0294117647059 0.0 0.0 1 
0.0588235294118 0.0 0.0 1 
0.0882352941176 0.0 0.0 1 
0.117647058824 0.0 0.0 1 
0.147058823529 0.0 0.0 1 
0.176470588235 0.0 0.0 1 
0.205882352941 6.16297582204e-33 0.0 1 
0.235294117647 0.0 0.0 1 
0.264705882353 6.16297582204e-33 0.0 1 
0.294117647059 0.0 0.0 1 
0.323529411765 6.16297582204e-33 0.0 1 
0.352941176471 0.0 0.0 1 
0.382352941176 1.23259516441e-32 0.0 1 
0.411764705882 1.23259516441e-32 0.0 1 
0.441176470588 0.0 0.0 1 
0.470588235294 0.0 0.0 1 
0.5 0.0 0.0 1 X
0.5 0.0 0.0 1 X
0.5 0.0294117647059 0.0 1 
0.5 0.0588235294118 0.0 1 
0.5 0.0882352941176 0.0 1 
0.5 0.117647058824 0.0 1 
0.5 0.147058823529 0.0 1 
0.5 0.176470588235 0.0 1 
0.5 0.205882352941 0.0 1 
0.5 0.235294117647 0.0 1 
0.5 0.264705882353 0.0 1 
0.5 0.294117647059 0.0 1 
0.5 0.323529411765 0.0 1 
0.5 0.352941176471 0.0 1 
0.5 0.382352941176 0.0 1 
0.5 0.411764705882 0.0 1 
0.5 0.441176470588 0.0 1 
0.5 0.470588235294 0.0 1 
0.5 0.5 0.0 1 S
0.5 0.5 0.0 1 S
0.470588235294 0.5 0.0 1 
0.441176470588 0.5 0.0 1 
0.411764705882 0.5 0.0 1 
0.382352941176 0.5 0.0 1 
0.352941176471 0.5 0.0 1 
0.323529411765 0.5 0.0 1 
0.294117647059 0.5 0.0 1 
0.264705882353 0.5 0.0 1 
0.235294117647 0.5 0.0 1 
0.205882352941 0.5 0.0 1 
0.176470588235 0.5 0.0 1 
0.147058823529 0.5 0.0 1 
0.117647058824 0.5 0.0 1 
0.0882352941176 0.5 0.0 1 
0.0588235294118 0.5 0.0 1 
0.0294117647059 0.5 0.0 1 
0.0 0.5 0.0 1 Y
0.0 0.5 0.0 1 Y
0.0 0.470588235294 0.0 1 
0.0 0.441176470588 0.0 1 
0.0 0.411764705882 0.0 1 
0.0 0.382352941176 0.0 1 
0.0 0.352941176471 0.0 1 
0.0 0.323529411765 0.0 1 
0.0 0.294117647059 0.0 1 
0.0 0.264705882353 0.0 1 
0.0 0.235294117647 0.0 1 
0.0 0.205882352941 0.0 1 
0.0 0.176470588235 0.0 1 
0.0 0.147058823529 0.0 1 
0.0 0.117647058824 0.0 1 
0.0 0.0882352941176 0.0 1 
0.0 0.0588235294118 0.0 1 
0.0 0.0294117647059 0.0 1 
0.0 0.0 0.0 1 \Gamma
0.0 0.0 0.0 1 \Gamma
-3.85185988877e-34 0.0 0.0416666666667 1 
-7.70371977755e-34 0.0 0.0833333333333 1 
0.0 0.0 0.125 1 
-1.54074395551e-33 0.0 0.166666666667 1 
1.54074395551e-33 1.54074395551e-33 0.208333333333 1 
0.0 0.0 0.25 1 
0.0 1.54074395551e-33 0.291666666667 1 
-3.08148791102e-33 0.0 0.333333333333 1 
3.08148791102e-33 0.0 0.375 1 
3.08148791102e-33 3.08148791102e-33 0.416666666667 1 
3.08148791102e-33 3.08148791102e-33 0.458333333333 1 
0.0 0.0 0.5 1 Z
0.0 0.0 0.5 1 Z
0.0294117647059 0.0 0.5 1 
0.0588235294118 3.08148791102e-33 0.5 1 
0.0882352941176 0.0 0.5 1 
0.117647058824 -3.08148791102e-33 0.5 1 
0.147058823529 6.16297582204e-33 0.5 1 
0.176470588235 0.0 0.5 1 
0.205882352941 0.0 0.5 1 
0.235294117647 -1.23259516441e-32 0.5 1 
0.264705882353 0.0 0.5 1 
0.294117647059 6.16297582204e-33 0.5 1 
0.323529411765 6.16297582204e-33 0.5 1 
0.352941176471 6.16297582204e-33 0.5 1 
0.382352941176 1.84889274661e-32 0.5 1 
0.411764705882 6.16297582204e-33 0.5 1 
0.441176470588 6.16297582204e-33 0.5 1 
0.470588235294 6.16297582204e-33 0.5 1 
0.5 6.16297582204e-33 0.5 1 U
0.5 6.16297582204e-33 0.5 1 U
0.5 0.0294117647059 0.5 1 
0.5 0.0588235294118 0.5 1 
0.5 0.0882352941176 0.5 1 
0.5 0.117647058824 0.5 1 
0.5 0.147058823529 0.5 1 
0.5 0.176470588235 0.5 1 
0.5 0.205882352941 0.5 1 
0.5 0.235294117647 0.5 1 
0.5 0.264705882353 0.5 1 
0.5 0.294117647059 0.5 1 
0.5 0.323529411765 0.5 1 
0.5 0.352941176471 0.5 1 
0.5 0.382352941176 0.5 1 
0.5 0.411764705882 0.5 1 
0.5 0.441176470588 0.5 1 
0.5 0.470588235294 0.5 1 
0.5 0.5 0.5 1 R
0.5 0.5 0.5 1 R
0.470588235294 0.5 0.5 1 
0.441176470588 0.5 0.5 1 
0.411764705882 0.5 0.5 1 
0.382352941176 0.5 0.5 1 
0.352941176471 0.5 0.5 1 
0.323529411765 0.5 0.5 1 
0.294117647059 0.5 0.5 1 
0.264705882353 0.5 0.5 1 
0.235294117647 0.5 0.5 1 
0.205882352941 0.5 0.5 1 
0.176470588235 0.5 0.5 1 
0.147058823529 0.5 0.5 1 
0.117647058824 0.5 0.5 1 
0.0882352941176 0.5 0.5 1 
0.0588235294118 0.5 0.5 1 
0.0294117647059 0.5 0.5 1 
2.16489014059e-17 0.5 0.5 1 T
0.0 0.5 0.5 1 T
0.0 0.470588235294 0.5 1 
0.0 0.441176470588 0.5 1 
0.0 0.411764705882 0.5 1 
0.0 0.382352941176 0.5 1 
0.0 0.352941176471 0.5 1 
0.0 0.323529411765 0.5 1 
0.0 0.294117647059 0.5 1 
0.0 0.264705882353 0.5 1 
0.0 0.235294117647 0.5 1 
0.0 0.205882352941 0.5 1 
0.0 0.176470588235 0.5 1 
0.0 0.147058823529 0.5 1 
0.0 0.117647058824 0.5 1 
0.0 0.0882352941176 0.5 1 
0.0 0.0588235294118 0.5 1 
0.0 0.0294117647059 0.5 1 
0.0 2.16489014059e-17 0.5 1 Z
0.0 0.5 0.0 1 Y
-3.85185988877e-34 0.5 0.0416666666667 1 
-7.70371977755e-34 0.5 0.0833333333333 1 
0.0 0.5 0.125 1 
-1.54074395551e-33 0.5 0.166666666667 1 
1.54074395551e-33 0.5 0.208333333333 1 
0.0 0.5 0.25 1 
0.0 0.5 0.291666666667 1 
-3.08148791102e-33 0.5 0.333333333333 1 
3.08148791102e-33 0.5 0.375 1 
3.08148791102e-33 0.5 0.416666666667 1 
3.08148791102e-33 0.5 0.458333333333 1 
0.0 0.5 0.5 1 T
0.5 6.16297582204e-33 0.5 1 U
0.5 1.84889274661e-32 0.458333333333 1 
0.5 6.16297582204e-33 0.416666666667 1 
0.5 1.54074395551e-32 0.375 1 
0.5 0.0 0.333333333333 1 
0.5 1.07852076886e-32 0.291666666667 1 
0.5 -3.08148791102e-33 0.25 1 
0.5 6.16297582204e-33 0.208333333333 1 
0.5 7.70371977755e-33 0.166666666667 1 
0.5 4.62223186653e-33 0.125 1 
0.5 1.54074395551e-33 0.0833333333333 1 
0.5 7.70371977755e-34 0.0416666666667 1 
0.5 0.0 0.0 1 X
0.5 0.5 0.0 1 S
0.5 0.5 0.0416666666667 1 
0.5 0.5 0.0833333333333 1 
0.5 0.5 0.125 1 
0.5 0.5 0.166666666667 1 
0.5 0.5 0.208333333333 1 
0.5 0.5 0.25 1 
0.5 0.5 0.291666666667 1 
0.5 0.5 0.333333333333 1 
0.5 0.5 0.375 1 
0.5 0.5 0.416666666667 1 
0.5 0.5 0.458333333333 1 
0.5 0.5 0.5 1 R
