Si8                                     
   1.00000000000000     
     5.4687279999999996    0.0000000000000000    0.0000000000000000
     0.0000000000000000    5.4687279999999996    0.0000000000000000
     0.0000000000000000    0.0000000000000000    5.4687279999999996
   Si
     8
Direct
  0.2480447657711435  0.7512061249876387  0.2548683985061113
  0.7479549250555559  0.7513059103881239  0.7547100913405466
  0.2479221521506327  0.2512530694191207  0.7554109826047792
  0.7478263032574997  0.2511539916682308  0.2549304105167052
  0.4977029083575342  0.5011116168701312  0.5050404182896511
  0.4980647817400463  0.0009749462683973  0.0049567353417633
 -0.0023231206942286  0.5014160075542118  0.0050967921029314
 -0.0018597156381816  0.0015783328441437  0.5049861712975110
 
  0.00000000E+00  0.00000000E+00  0.00000000E+00
  0.00000000E+00  0.00000000E+00  0.00000000E+00
  0.00000000E+00  0.00000000E+00  0.00000000E+00
  0.00000000E+00  0.00000000E+00  0.00000000E+00
  0.00000000E+00  0.00000000E+00  0.00000000E+00
  0.00000000E+00  0.00000000E+00  0.00000000E+00
  0.00000000E+00  0.00000000E+00  0.00000000E+00
  0.00000000E+00  0.00000000E+00  0.00000000E+00
