ALGO = Fast
EDIFF = 5e-05
ENCUT = 520
IBRION = 1
ICHARG = 1
ISIF = 2
ISMEAR = 0
#ISPIN = 2
#LORBIT = 11
LREAL = Auto
LWAVE = False
NELM = 100
NSW = 99
PREC = Accurate
SIGMA = 0.05
LCHARG = .TRUE.
EDIFFG = -0.02
IVDW = 12
NPAR = 4
LDIPOL = .TRUE.
IDIPOL = 3
