B1 N1                                   
   1.00000000000000     
     2.5125099999999998    0.0000000000000000    0.0000000000000000
    -1.2562549999999999    2.1758970000000000    0.0000000000000000
     0.0000000000000000    0.0000000000000000   20.0000000000000000
   B    N 
     1     1
Direct
  0.6616683609174132  0.3383300565024405  0.4950024794019111
  0.3283316390825888  0.6716699434975646  0.4949975205980909
 
  0.00000000E+00  0.00000000E+00  0.00000000E+00
  0.00000000E+00  0.00000000E+00  0.00000000E+00
