pymatgen 4.7.6+ generated KPOINTS with grid density = 1213 / atom
0
Gamma
10 10 6
