pymatgen 4.7.6+ generated KPOINTS with grid density = 1213 / atom
0
Gamma
8 8 5
#2018-09-02-19:47:24: KPOINTS of step_3_scf
