Mo1 S2
1.0
3.184573 0.000000 0.000000
-1.592287 2.757921 0.000000
0.000000 0.000000 25.000000
Mo S
1 2
direct
0.666667 0.343333 0.158790 Mo
0.333333 0.666667 0.096195 S
0.323333 0.656667 0.221385 S
