Non SCF run along symmetry lines
146
Reciprocal
0.0 0.0 0.0 1 \Gamma
0.0217391304348 0.0 0.0 1 
0.0434782608696 0.0 0.0 1 
0.0652173913043 -6.93889390391e-18 0.0 1 
0.0869565217391 0.0 0.0 1 
0.108695652174 0.0 0.0 1 
0.130434782609 -1.38777878078e-17 0.0 1 
0.152173913043 0.0 0.0 1 
0.173913043478 0.0 0.0 1 
0.195652173913 0.0 0.0 1 
0.217391304348 0.0 0.0 1 
0.239130434783 0.0 0.0 1 
0.260869565217 -2.77555756156e-17 0.0 1 
0.282608695652 -2.77555756156e-17 0.0 1 
0.304347826087 0.0 0.0 1 
0.326086956522 0.0 0.0 1 
0.347826086957 0.0 0.0 1 
0.369565217391 0.0 0.0 1 
0.391304347826 0.0 0.0 1 
0.413043478261 0.0 0.0 1 
0.434782608696 0.0 0.0 1 
0.45652173913 -2.77555756156e-17 0.0 1 
0.478260869565 0.0 0.0 1 
0.5 0.0 0.0 1 M
0.5 0.0 0.0 1 M
0.488095238095 0.0238095238095 0.0 1 
0.47619047619 0.047619047619 0.0 1 
0.464285714286 0.0714285714286 0.0 1 
0.452380952381 0.0952380952381 0.0 1 
0.440476190476 0.119047619048 0.0 1 
0.428571428571 0.142857142857 0.0 1 
0.416666666667 0.166666666667 0.0 1 
0.404761904762 0.190476190476 0.0 1 
0.392857142857 0.214285714286 0.0 1 
0.380952380952 0.238095238095 0.0 1 
0.369047619048 0.261904761905 0.0 1 
0.357142857143 0.285714285714 0.0 1 
0.345238095238 0.309523809524 0.0 1 
0.333333333333 0.333333333333 0.0 1 K
0.333333333333 0.333333333333 0.0 1 K
0.320987654321 0.320987654321 0.0 1 
0.308641975309 0.308641975309 0.0 1 
0.296296296296 0.296296296296 0.0 1 
0.283950617284 0.283950617284 0.0 1 
0.271604938272 0.271604938272 0.0 1 
0.259259259259 0.259259259259 0.0 1 
0.246913580247 0.246913580247 0.0 1 
0.234567901235 0.234567901235 0.0 1 
0.222222222222 0.222222222222 0.0 1 
0.20987654321 0.20987654321 0.0 1 
0.197530864198 0.197530864198 0.0 1 
0.185185185185 0.185185185185 0.0 1 
0.172839506173 0.172839506173 0.0 1 
0.16049382716 0.16049382716 0.0 1 
0.148148148148 0.148148148148 0.0 1 
0.135802469136 0.135802469136 0.0 1 
0.123456790123 0.123456790123 0.0 1 
0.111111111111 0.111111111111 0.0 1 
0.0987654320988 0.0987654320988 0.0 1 
0.0864197530864 0.0864197530864 0.0 1 
0.0740740740741 0.0740740740741 0.0 1 
0.0617283950617 0.0617283950617 0.0 1 
0.0493827160494 0.0493827160494 0.0 1 
0.037037037037 0.037037037037 0.0 1 
0.0246913580247 0.0246913580247 0.0 1 
0.0123456790123 0.0123456790123 0.0 1 
0.0 0.0 0.0 1 \Gamma
0.0 0.0 0.0 1 \Gamma
0.0 0.0 0.166666666667 1 
0.0 0.0 0.333333333333 1 
0.0 0.0 0.5 1 A
0.0 0.0 0.5 1 A
0.0217391304348 0.0 0.5 1 
0.0434782608696 0.0 0.5 1 
0.0652173913043 -6.93889390391e-18 0.5 1 
0.0869565217391 0.0 0.5 1 
0.108695652174 0.0 0.5 1 
0.130434782609 -1.38777878078e-17 0.5 1 
0.152173913043 0.0 0.5 1 
0.173913043478 0.0 0.5 1 
0.195652173913 0.0 0.5 1 
0.217391304348 0.0 0.5 1 
0.239130434783 0.0 0.5 1 
0.260869565217 -2.77555756156e-17 0.5 1 
0.282608695652 -2.77555756156e-17 0.5 1 
0.304347826087 0.0 0.5 1 
0.326086956522 0.0 0.5 1 
0.347826086957 0.0 0.5 1 
0.369565217391 0.0 0.5 1 
0.391304347826 0.0 0.5 1 
0.413043478261 0.0 0.5 1 
0.434782608696 0.0 0.5 1 
0.45652173913 -2.77555756156e-17 0.5 1 
0.478260869565 0.0 0.5 1 
0.5 0.0 0.5 1 L
0.5 0.0 0.5 1 L
0.488095238095 0.0238095238095 0.5 1 
0.47619047619 0.047619047619 0.5 1 
0.464285714286 0.0714285714286 0.5 1 
0.452380952381 0.0952380952381 0.5 1 
0.440476190476 0.119047619048 0.5 1 
0.428571428571 0.142857142857 0.5 1 
0.416666666667 0.166666666667 0.5 1 
0.404761904762 0.190476190476 0.5 1 
0.392857142857 0.214285714286 0.5 1 
0.380952380952 0.238095238095 0.5 1 
0.369047619048 0.261904761905 0.5 1 
0.357142857143 0.285714285714 0.5 1 
0.345238095238 0.309523809524 0.5 1 
0.333333333333 0.333333333333 0.5 1 H
0.333333333333 0.333333333333 0.5 1 H
0.320987654321 0.320987654321 0.5 1 
0.308641975309 0.308641975309 0.5 1 
0.296296296296 0.296296296296 0.5 1 
0.283950617284 0.283950617284 0.5 1 
0.271604938272 0.271604938272 0.5 1 
0.259259259259 0.259259259259 0.5 1 
0.246913580247 0.246913580247 0.5 1 
0.234567901235 0.234567901235 0.5 1 
0.222222222222 0.222222222222 0.5 1 
0.20987654321 0.20987654321 0.5 1 
0.197530864198 0.197530864198 0.5 1 
0.185185185185 0.185185185185 0.5 1 
0.172839506173 0.172839506173 0.5 1 
0.16049382716 0.16049382716 0.5 1 
0.148148148148 0.148148148148 0.5 1 
0.135802469136 0.135802469136 0.5 1 
0.123456790123 0.123456790123 0.5 1 
0.111111111111 0.111111111111 0.5 1 
0.0987654320988 0.0987654320988 0.5 1 
0.0864197530864 0.0864197530864 0.5 1 
0.0740740740741 0.0740740740741 0.5 1 
0.0617283950617 0.0617283950617 0.5 1 
0.0493827160494 0.0493827160494 0.5 1 
0.037037037037 0.037037037037 0.5 1 
0.0246913580247 0.0246913580247 0.5 1 
0.0123456790123 0.0123456790123 0.5 1 
0.0 0.0 0.5 1 A
0.5 0.0 0.5 1 L
0.5 0.0 0.333333333333 1 
0.5 0.0 0.166666666667 1 
0.5 0.0 0.0 1 M
0.333333333333 0.333333333333 0.0 1 K
0.333333333333 0.333333333333 0.166666666667 1 
0.333333333333 0.333333333333 0.333333333333 1 
0.333333333333 0.333333333333 0.5 1 H
