pymatgen 4.7.6+ generated KPOINTS with grid density = 264 / atom
0
Gamma
3 3 1
