Non SCF run along symmetry lines
114
Reciprocal
0.5 0.0 0.0 1 X
0.458333333333 6.16297582204e-33 6.16297582204e-33 1 
0.416666666667 3.08148791102e-33 0.0 1 
0.375 3.08148791102e-33 3.08148791102e-33 1 
0.333333333333 0.0 0.0 1 
0.291666666667 0.0 0.0 1 
0.25 0.0 0.0 1 
0.208333333333 1.54074395551e-33 0.0 1 
0.166666666667 1.54074395551e-33 1.54074395551e-33 1 
0.125 -1.54074395551e-33 -1.54074395551e-33 1 
0.0833333333333 -7.70371977755e-34 -7.70371977755e-34 1 
0.0416666666667 -3.08148791102e-33 -3.08148791102e-33 1 
0.0 0.0 0.0 1 \Gamma
0.0 0.0 0.0 1 \Gamma
0.0 0.0416666666667 0.0 1 
0.0 0.0833333333333 0.0 1 
0.0 0.125 0.0 1 
0.0 0.166666666667 0.0 1 
0.0 0.208333333333 1.54074395551e-33 1 
0.0 0.25 0.0 1 
0.0 0.291666666667 0.0 1 
0.0 0.333333333333 0.0 1 
0.0 0.375 3.08148791102e-33 1 
0.0 0.416666666667 3.08148791102e-33 1 
0.0 0.458333333333 6.16297582204e-33 1 
0.0 0.5 0.0 1 Y
0.5 0.5 0.0 1 L
0.470588235294 0.470588235294 1.23259516441e-32 1 
0.441176470588 0.441176470588 0.0 1 
0.411764705882 0.411764705882 0.0 1 
0.382352941176 0.382352941176 -6.16297582204e-33 1 
0.352941176471 0.352941176471 -6.16297582204e-33 1 
0.323529411765 0.323529411765 0.0 1 
0.294117647059 0.294117647059 6.16297582204e-33 1 
0.264705882353 0.264705882353 6.16297582204e-33 1 
0.235294117647 0.235294117647 0.0 1 
0.205882352941 0.205882352941 -3.08148791102e-33 1 
0.176470588235 0.176470588235 0.0 1 
0.147058823529 0.147058823529 0.0 1 
0.117647058824 0.117647058824 0.0 1 
0.0882352941176 0.0882352941176 3.08148791102e-33 1 
0.0588235294118 0.0588235294118 3.08148791102e-33 1 
0.0294117647059 0.0294117647059 6.93334779979e-33 1 
0.0 0.0 0.0 1 \Gamma
0.0 0.0 0.0 1 \Gamma
0.0 0.0 0.0416666666667 1 
0.0 0.0 0.0833333333333 1 
0.0 0.0 0.125 1 
0.0 0.0 0.166666666667 1 
0.0 0.0 0.208333333333 1 
0.0 0.0 0.25 1 
0.0 0.0 0.291666666667 1 
0.0 0.0 0.333333333333 1 
0.0 0.0 0.375 1 
0.0 0.0 0.416666666667 1 
0.0 0.0 0.458333333333 1 
0.0 0.0 0.5 1 Z
0.5 0.0 0.5 1 N
0.470588235294 6.16297582204e-33 0.470588235294 1 
0.441176470588 0.0 0.441176470588 1 
0.411764705882 0.0 0.411764705882 1 
0.382352941176 -3.08148791102e-33 0.382352941176 1 
0.352941176471 -3.08148791102e-33 0.352941176471 1 
0.323529411765 0.0 0.323529411765 1 
0.294117647059 3.08148791102e-33 0.294117647059 1 
0.264705882353 3.08148791102e-33 0.264705882353 1 
0.235294117647 0.0 0.235294117647 1 
0.205882352941 -1.54074395551e-33 0.205882352941 1 
0.176470588235 0.0 0.176470588235 1 
0.147058823529 0.0 0.147058823529 1 
0.117647058824 0.0 0.117647058824 1 
0.0882352941176 1.54074395551e-33 0.0882352941176 1 
0.0588235294118 1.54074395551e-33 0.0588235294118 1 
0.0294117647059 3.4666738999e-33 0.0294117647059 1 
0.0 0.0 0.0 1 \Gamma
0.0 0.0 0.0 1 \Gamma
0.0 0.0294117647059 0.0294117647059 1 
0.0 0.0588235294118 0.0588235294118 1 
0.0 0.0882352941176 0.0882352941176 1 
0.0 0.117647058824 0.117647058824 1 
0.0 0.147058823529 0.147058823529 1 
0.0 0.176470588235 0.176470588235 1 
0.0 0.205882352941 0.205882352941 1 
0.0 0.235294117647 0.235294117647 1 
0.0 0.264705882353 0.264705882353 1 
0.0 0.294117647059 0.294117647059 1 
0.0 0.323529411765 0.323529411765 1 
0.0 0.352941176471 0.352941176471 1 
0.0 0.382352941176 0.382352941176 1 
0.0 0.411764705882 0.411764705882 1 
0.0 0.441176470588 0.441176470588 1 
0.0 0.470588235294 0.470588235294 1 
0.0 0.5 0.5 1 M
0.5 0.5 0.5 1 R
0.475 0.475 0.475 1 
0.45 0.45 0.45 1 
0.425 0.425 0.425 1 
0.4 0.4 0.4 1 
0.375 0.375 0.375 1 
0.35 0.35 0.35 1 
0.325 0.325 0.325 1 
0.3 0.3 0.3 1 
0.275 0.275 0.275 1 
0.25 0.25 0.25 1 
0.225 0.225 0.225 1 
0.2 0.2 0.2 1 
0.175 0.175 0.175 1 
0.15 0.15 0.15 1 
0.125 0.125 0.125 1 
0.1 0.1 0.1 1 
0.075 0.075 0.075 1 
0.05 0.05 0.05 1 
0.025 0.025 0.025 1 
0.0 0.0 0.0 1 \Gamma
#2018-09-02-19:47:25: KPOINTS of step_5_band_structure
