Non SCF run along symmetry lines
181
Reciprocal
0.0 0.0 0.0 1 \Gamma
0.0172413793103 0.0 0.0 1 
0.0344827586207 0.0 0.0 1 
0.051724137931 3.46944695195e-18 0.0 1 
0.0689655172414 0.0 0.0 1 
0.0862068965517 0.0 0.0 1 
0.103448275862 6.93889390391e-18 0.0 1 
0.120689655172 6.93889390391e-18 0.0 1 
0.137931034483 0.0 0.0 1 
0.155172413793 0.0 0.0 1 
0.172413793103 0.0 0.0 1 
0.189655172414 0.0 0.0 1 
0.206896551724 1.38777878078e-17 0.0 1 
0.224137931034 1.38777878078e-17 0.0 1 
0.241379310345 1.38777878078e-17 0.0 1 
0.258620689655 0.0 0.0 1 
0.275862068966 0.0 0.0 1 
0.293103448276 0.0 0.0 1 
0.310344827586 0.0 0.0 1 
0.327586206897 0.0 0.0 1 
0.344827586207 0.0 0.0 1 
0.362068965517 2.77555756156e-17 0.0 1 
0.379310344828 0.0 0.0 1 
0.396551724138 0.0 0.0 1 
0.413793103448 2.77555756156e-17 0.0 1 
0.431034482759 0.0 0.0 1 
0.448275862069 2.77555756156e-17 0.0 1 
0.465517241379 5.55111512313e-17 0.0 1 
0.48275862069 2.77555756156e-17 0.0 1 
0.5 0.0 0.0 1 M
0.5 0.0 0.0 1 M
0.490196078431 0.0196078431373 0.0 1 
0.480392156863 0.0392156862745 0.0 1 
0.470588235294 0.0588235294118 0.0 1 
0.460784313725 0.078431372549 0.0 1 
0.450980392157 0.0980392156863 0.0 1 
0.441176470588 0.117647058824 0.0 1 
0.43137254902 0.137254901961 0.0 1 
0.421568627451 0.156862745098 0.0 1 
0.411764705882 0.176470588235 0.0 1 
0.401960784314 0.196078431373 0.0 1 
0.392156862745 0.21568627451 0.0 1 
0.382352941176 0.235294117647 0.0 1 
0.372549019608 0.254901960784 0.0 1 
0.362745098039 0.274509803922 0.0 1 
0.352941176471 0.294117647059 0.0 1 
0.343137254902 0.313725490196 0.0 1 
0.333333333333 0.333333333333 0.0 1 K
0.333333333333 0.333333333333 0.0 1 K
0.323529411765 0.323529411765 0.0 1 
0.313725490196 0.313725490196 0.0 1 
0.303921568627 0.303921568627 0.0 1 
0.294117647059 0.294117647059 0.0 1 
0.28431372549 0.28431372549 0.0 1 
0.274509803922 0.274509803922 0.0 1 
0.264705882353 0.264705882353 0.0 1 
0.254901960784 0.254901960784 0.0 1 
0.245098039216 0.245098039216 0.0 1 
0.235294117647 0.235294117647 0.0 1 
0.225490196078 0.225490196078 0.0 1 
0.21568627451 0.21568627451 0.0 1 
0.205882352941 0.205882352941 0.0 1 
0.196078431373 0.196078431373 0.0 1 
0.186274509804 0.186274509804 0.0 1 
0.176470588235 0.176470588235 0.0 1 
0.166666666667 0.166666666667 0.0 1 
0.156862745098 0.156862745098 0.0 1 
0.147058823529 0.147058823529 0.0 1 
0.137254901961 0.137254901961 0.0 1 
0.127450980392 0.127450980392 0.0 1 
0.117647058824 0.117647058824 0.0 1 
0.107843137255 0.107843137255 0.0 1 
0.0980392156863 0.0980392156863 0.0 1 
0.0882352941176 0.0882352941176 0.0 1 
0.078431372549 0.078431372549 0.0 1 
0.0686274509804 0.0686274509804 0.0 1 
0.0588235294118 0.0588235294118 0.0 1 
0.0490196078431 0.0490196078431 0.0 1 
0.0392156862745 0.0392156862745 0.0 1 
0.0294117647059 0.0294117647059 0.0 1 
0.0196078431373 0.0196078431373 0.0 1 
0.00980392156863 0.00980392156863 0.0 1 
0.0 0.0 0.0 1 \Gamma
0.0 0.0 0.0 1 \Gamma
0.0 0.0 0.125 1 
0.0 0.0 0.25 1 
0.0 0.0 0.375 1 
0.0 0.0 0.5 1 A
0.0 0.0 0.5 1 A
0.0172413793103 0.0 0.5 1 
0.0344827586207 0.0 0.5 1 
0.051724137931 3.46944695195e-18 0.5 1 
0.0689655172414 0.0 0.5 1 
0.0862068965517 0.0 0.5 1 
0.103448275862 6.93889390391e-18 0.5 1 
0.120689655172 6.93889390391e-18 0.5 1 
0.137931034483 0.0 0.5 1 
0.155172413793 0.0 0.5 1 
0.172413793103 0.0 0.5 1 
0.189655172414 0.0 0.5 1 
0.206896551724 1.38777878078e-17 0.5 1 
0.224137931034 1.38777878078e-17 0.5 1 
0.241379310345 1.38777878078e-17 0.5 1 
0.258620689655 0.0 0.5 1 
0.275862068966 0.0 0.5 1 
0.293103448276 0.0 0.5 1 
0.310344827586 0.0 0.5 1 
0.327586206897 0.0 0.5 1 
0.344827586207 0.0 0.5 1 
0.362068965517 2.77555756156e-17 0.5 1 
0.379310344828 0.0 0.5 1 
0.396551724138 0.0 0.5 1 
0.413793103448 2.77555756156e-17 0.5 1 
0.431034482759 0.0 0.5 1 
0.448275862069 2.77555756156e-17 0.5 1 
0.465517241379 5.55111512313e-17 0.5 1 
0.48275862069 2.77555756156e-17 0.5 1 
0.5 0.0 0.5 1 L
0.5 0.0 0.5 1 L
0.490196078431 0.0196078431373 0.5 1 
0.480392156863 0.0392156862745 0.5 1 
0.470588235294 0.0588235294118 0.5 1 
0.460784313725 0.078431372549 0.5 1 
0.450980392157 0.0980392156863 0.5 1 
0.441176470588 0.117647058824 0.5 1 
0.43137254902 0.137254901961 0.5 1 
0.421568627451 0.156862745098 0.5 1 
0.411764705882 0.176470588235 0.5 1 
0.401960784314 0.196078431373 0.5 1 
0.392156862745 0.21568627451 0.5 1 
0.382352941176 0.235294117647 0.5 1 
0.372549019608 0.254901960784 0.5 1 
0.362745098039 0.274509803922 0.5 1 
0.352941176471 0.294117647059 0.5 1 
0.343137254902 0.313725490196 0.5 1 
0.333333333333 0.333333333333 0.5 1 H
0.333333333333 0.333333333333 0.5 1 H
0.323529411765 0.323529411765 0.5 1 
0.313725490196 0.313725490196 0.5 1 
0.303921568627 0.303921568627 0.5 1 
0.294117647059 0.294117647059 0.5 1 
0.28431372549 0.28431372549 0.5 1 
0.274509803922 0.274509803922 0.5 1 
0.264705882353 0.264705882353 0.5 1 
0.254901960784 0.254901960784 0.5 1 
0.245098039216 0.245098039216 0.5 1 
0.235294117647 0.235294117647 0.5 1 
0.225490196078 0.225490196078 0.5 1 
0.21568627451 0.21568627451 0.5 1 
0.205882352941 0.205882352941 0.5 1 
0.196078431373 0.196078431373 0.5 1 
0.186274509804 0.186274509804 0.5 1 
0.176470588235 0.176470588235 0.5 1 
0.166666666667 0.166666666667 0.5 1 
0.156862745098 0.156862745098 0.5 1 
0.147058823529 0.147058823529 0.5 1 
0.137254901961 0.137254901961 0.5 1 
0.127450980392 0.127450980392 0.5 1 
0.117647058824 0.117647058824 0.5 1 
0.107843137255 0.107843137255 0.5 1 
0.0980392156863 0.0980392156863 0.5 1 
0.0882352941176 0.0882352941176 0.5 1 
0.078431372549 0.078431372549 0.5 1 
0.0686274509804 0.0686274509804 0.5 1 
0.0588235294118 0.0588235294118 0.5 1 
0.0490196078431 0.0490196078431 0.5 1 
0.0392156862745 0.0392156862745 0.5 1 
0.0294117647059 0.0294117647059 0.5 1 
0.0196078431373 0.0196078431373 0.5 1 
0.00980392156863 0.00980392156863 0.5 1 
0.0 0.0 0.5 1 A
0.5 0.0 0.5 1 L
0.5 0.0 0.375 1 
0.5 0.0 0.25 1 
0.5 0.0 0.125 1 
0.5 0.0 0.0 1 M
0.333333333333 0.333333333333 0.0 1 K
0.333333333333 0.333333333333 0.125 1 
0.333333333333 0.333333333333 0.25 1 
0.333333333333 0.333333333333 0.375 1 
0.333333333333 0.333333333333 0.5 1 H
