k-points along high symmetry lines
20
Line-mode
rec
    0.5  0.0  0.0    X
    0.0  0.0  0.0    \Gamma

    0.0  0.0  0.0    \Gamma
    0.0  0.5  0.0    Y

    0.5  0.5  0.0    L
    0.0  0.0  0.0    \Gamma

    0.0  0.0  0.0    \Gamma
    0.0  0.0  0.5    Z

    0.5  0.0  0.5    N
    0.0  0.0  0.0    \Gamma

    0.0  0.0  0.0    \Gamma
    0.0  0.5  0.5    M

    0.5  0.5  0.5    R
    0.0  0.0  0.0    \Gamma

#2018-09-02-19:47:24: KPOINTS of step_4_band_structure
