Si8
1.0
5.468728 0.000000 0.000000
0.000000 5.468728 0.000000
0.000000 0.000000 5.468728
Si
8
direct
0.250000 0.750000 0.250000 Si
0.750000 0.750000 0.750000 Si
0.250000 0.250000 0.790000 Si
0.733333 0.240000 0.250000 Si
0.500000 0.500000 0.500000 Si
0.500000 0.000000 0.000000 Si
0.000000 0.510000 0.000000 Si
0.000000 0.010000 0.500000 Si
#2018-09-02-19:47:24: CONTCAR of step_1_str_opt
#2018-09-02-19:47:24: CONTCAR of step_2_consecutive_str_opt
#2018-09-02-19:47:24: POSCAR of step_3_scf
#2018-09-02-19:47:25: CONTCAR of step_7_dos
