pymatgen 4.7.6+ generated KPOINTS with grid density = 1213 / atom
0
Gamma
10 10 6
#2018-09-02-19:47:25: KPOINTS of step_7_dos
