W12 Se24
1.0
11.500556 0.000000 0.000000
-5.750278 9.959773 0.000000
0.000000 0.000000 29.488800
W Se
12 24
direct
0.666648 0.499977 0.394123 W
0.499982 0.666643 0.394123 W
0.666648 0.999977 0.394123 W
0.499982 0.166643 0.394123 W
0.333315 0.333310 0.394123 W
0.166648 0.499977 0.394123 W
0.999982 0.666643 0.394123 W
0.333315 0.833310 0.394123 W
0.166648 0.999977 0.394123 W
0.999982 0.166643 0.394123 W
0.833315 0.333310 0.394123 W
0.833315 0.833310 0.394123 W
0.666677 0.666678 0.337159 Se
0.500010 0.833345 0.337159 Se
0.666677 0.166678 0.337159 Se
0.500010 0.333345 0.337159 Se
0.333343 0.500012 0.337159 Se
0.166677 0.666678 0.337159 Se
0.000010 0.833345 0.337159 Se
0.333343 0.000012 0.337159 Se
0.166677 0.166678 0.337159 Se
0.000010 0.333345 0.337159 Se
0.833343 0.500012 0.337159 Se
0.833343 0.000012 0.337159 Se
0.666677 0.666678 0.451087 Se
0.500010 0.833345 0.451087 Se
0.666677 0.166678 0.451087 Se
0.500010 0.333345 0.451087 Se
0.333343 0.500012 0.451087 Se
0.166677 0.666678 0.451087 Se
0.000010 0.833345 0.451087 Se
0.333343 0.000012 0.451087 Se
0.166677 0.166678 0.451087 Se
0.000010 0.333345 0.451087 Se
0.833343 0.500012 0.451087 Se
0.833343 0.000012 0.451087 Se
