B1 N1
1.0
2.512510 0.000000 0.000000
-1.256255 2.175897 0.000000
0.000000 0.000000 20.000000
B N
1 1
direct
0.656667 0.333333 0.490000 B
0.333333 0.676667 0.500000 N
