pymatgen 4.7.6+ generated KPOINTS with grid density = 169 / atom
0
Gamma
2 2 1
