W12 Se24                                
   1.00000000000000     
    11.5005559999999996    0.0000000000000000    0.0000000000000000
    -5.7502779999999998    9.9597730000000002    0.0000000000000000
     0.0000000000000000    0.0000000000000000   29.4888000000000012
   W    Se
    12    24
Direct
  0.6666711621568289  0.5000042189799080  0.3941230000000004
  0.5000047160372202  0.6666711592664289  0.3941230000000004
  0.6666711621568289  0.0000042189799081  0.3941230000000004
  0.5000047160372202  0.1666711592664290  0.3941230000000004
  0.3333375808317162  0.3333376358910176  0.3941230000000004
  0.1666711621568288  0.5000042189799080  0.3941230000000004
  0.0000047160372201  0.6666711592664289  0.3941230000000004
  0.3333375808317162  0.8333376358910176  0.3941230000000004
  0.1666711621568288  0.0000042189799081  0.3941230000000004
  0.0000047160372201  0.1666711592664290  0.3941230000000004
  0.8333375808317163  0.3333376358910176  0.3941230000000004
  0.8333375808317163  0.8333376358910176  0.3941230000000004
  0.6666654363582560  0.6666645001283450  0.3372196669343256
  0.4999985873575159  0.8333310117881628  0.3372197667391774
  0.6666654363582560  0.1666645001283450  0.3372196669343256
  0.4999985873575159  0.3333310117881628  0.3372197667391774
  0.3333317467713498  0.4999979810148114  0.3372197575375776
  0.1666654363582560  0.6666645001283450  0.3372196669343256
 -0.0000014126424841  0.8333310117881628  0.3372197667391774
  0.3333317467713498 -0.0000020189851886  0.3372197575375776
  0.1666654363582560  0.1666645001283450  0.3372196669343256
 -0.0000014126424841  0.3333310117881628  0.3372197667391774
  0.8333317467713498  0.4999979810148114  0.3372197575375776
  0.8333317467713498 -0.0000020189851886  0.3372197575375776
  0.6666654363582560  0.6666645001283450  0.4510263330656752
  0.4999985873575159  0.8333310117881628  0.4510262332608235
  0.6666654363582560  0.1666645001283450  0.4510263330656752
  0.4999985873575159  0.3333310117881628  0.4510262332608235
  0.3333317467713498  0.4999979810148114  0.4510262424624233
  0.1666654363582560  0.6666645001283450  0.4510263330656752
 -0.0000014126424841  0.8333310117881628  0.4510262332608235
  0.3333317467713498 -0.0000020189851886  0.4510262424624233
  0.1666654363582560  0.1666645001283450  0.4510263330656752
 -0.0000014126424841  0.3333310117881628  0.4510262332608235
  0.8333317467713498  0.4999979810148114  0.4510262424624233
  0.8333317467713498 -0.0000020189851886  0.4510262424624233
 
  0.00000000E+00  0.00000000E+00  0.00000000E+00
  0.00000000E+00  0.00000000E+00  0.00000000E+00
  0.00000000E+00  0.00000000E+00  0.00000000E+00
  0.00000000E+00  0.00000000E+00  0.00000000E+00
  0.00000000E+00  0.00000000E+00  0.00000000E+00
  0.00000000E+00  0.00000000E+00  0.00000000E+00
  0.00000000E+00  0.00000000E+00  0.00000000E+00
  0.00000000E+00  0.00000000E+00  0.00000000E+00
  0.00000000E+00  0.00000000E+00  0.00000000E+00
  0.00000000E+00  0.00000000E+00  0.00000000E+00
  0.00000000E+00  0.00000000E+00  0.00000000E+00
  0.00000000E+00  0.00000000E+00  0.00000000E+00
  0.00000000E+00  0.00000000E+00  0.00000000E+00
  0.00000000E+00  0.00000000E+00  0.00000000E+00
  0.00000000E+00  0.00000000E+00  0.00000000E+00
  0.00000000E+00  0.00000000E+00  0.00000000E+00
  0.00000000E+00  0.00000000E+00  0.00000000E+00
  0.00000000E+00  0.00000000E+00  0.00000000E+00
  0.00000000E+00  0.00000000E+00  0.00000000E+00
  0.00000000E+00  0.00000000E+00  0.00000000E+00
  0.00000000E+00  0.00000000E+00  0.00000000E+00
  0.00000000E+00  0.00000000E+00  0.00000000E+00
  0.00000000E+00  0.00000000E+00  0.00000000E+00
  0.00000000E+00  0.00000000E+00  0.00000000E+00
  0.00000000E+00  0.00000000E+00  0.00000000E+00
  0.00000000E+00  0.00000000E+00  0.00000000E+00
  0.00000000E+00  0.00000000E+00  0.00000000E+00
  0.00000000E+00  0.00000000E+00  0.00000000E+00
  0.00000000E+00  0.00000000E+00  0.00000000E+00
  0.00000000E+00  0.00000000E+00  0.00000000E+00
  0.00000000E+00  0.00000000E+00  0.00000000E+00
  0.00000000E+00  0.00000000E+00  0.00000000E+00
  0.00000000E+00  0.00000000E+00  0.00000000E+00
  0.00000000E+00  0.00000000E+00  0.00000000E+00
  0.00000000E+00  0.00000000E+00  0.00000000E+00
  0.00000000E+00  0.00000000E+00  0.00000000E+00
