ALGO = Normal
EDIFF = 1.0E-4
ENCUT = 520
#IBRION = 2
ICHARG = 11
#ISIF = 2
ISMEAR = 0
#ISPIN = 2
#LORBIT = 11
LREAL = Auto
LWAVE = False
NELM = 100
#NSW = 99
PREC = Accurate
SIGMA = 0.05
LCHARG = .FALSE.
#EDIFFG = -0.02
IVDW = 12
NPAR = 4
LDIPOL = .TRUE.
IDIPOL = 3
#LVHAR = .TRUE.
LORBIT = 11
