Non SCF run on uniform grid
88
Reciprocal
0.0 0.0 0.0 1
0.05 0.0 0.0 6
0.1 0.0 0.0 6
0.15 0.0 0.0 6
0.2 0.0 0.0 6
0.25 0.0 0.0 6
0.3 0.0 0.0 6
0.35 0.0 0.0 6
0.4 0.0 0.0 6
0.45 0.0 0.0 6
0.5 0.0 0.0 3
0.05 0.05 0.0 6
0.1 0.05 0.0 12
0.15 0.05 0.0 12
0.2 0.05 0.0 12
0.25 0.05 0.0 12
0.3 0.05 0.0 12
0.35 0.05 0.0 12
0.4 0.05 0.0 12
0.45 0.05 0.0 12
0.1 0.1 0.0 6
0.15 0.1 0.0 12
0.2 0.1 0.0 12
0.25 0.1 0.0 12
0.3 0.1 0.0 12
0.35 0.1 0.0 12
0.4 0.1 0.0 12
0.45 0.1 0.0 6
0.15 0.15 0.0 6
0.2 0.15 0.0 12
0.25 0.15 0.0 12
0.3 0.15 0.0 12
0.35 0.15 0.0 12
0.4 0.15 0.0 12
0.2 0.2 0.0 6
0.25 0.2 0.0 12
0.3 0.2 0.0 12
0.35 0.2 0.0 12
0.4 0.2 0.0 6
0.25 0.25 0.0 6
0.3 0.25 0.0 12
0.35 0.25 0.0 12
0.3 0.3 0.0 6
0.35 0.3 0.0 6
0.0 0.0 0.5 1
0.05 0.0 0.5 6
0.1 0.0 0.5 6
0.15 0.0 0.5 6
0.2 0.0 0.5 6
0.25 0.0 0.5 6
0.3 0.0 0.5 6
0.35 0.0 0.5 6
0.4 0.0 0.5 6
0.45 0.0 0.5 6
0.5 0.0 0.5 3
0.05 0.05 0.5 6
0.1 0.05 0.5 12
0.15 0.05 0.5 12
0.2 0.05 0.5 12
0.25 0.05 0.5 12
0.3 0.05 0.5 12
0.35 0.05 0.5 12
0.4 0.05 0.5 12
0.45 0.05 0.5 12
0.1 0.1 0.5 6
0.15 0.1 0.5 12
0.2 0.1 0.5 12
0.25 0.1 0.5 12
0.3 0.1 0.5 12
0.35 0.1 0.5 12
0.4 0.1 0.5 12
0.45 0.1 0.5 6
0.15 0.15 0.5 6
0.2 0.15 0.5 12
0.25 0.15 0.5 12
0.3 0.15 0.5 12
0.35 0.15 0.5 12
0.4 0.15 0.5 12
0.2 0.2 0.5 6
0.25 0.2 0.5 12
0.3 0.2 0.5 12
0.35 0.2 0.5 12
0.4 0.2 0.5 6
0.25 0.25 0.5 6
0.3 0.25 0.5 12
0.35 0.25 0.5 12
0.3 0.3 0.5 6
0.35 0.3 0.5 6
