Non SCF run on uniform grid
140
Reciprocal
0.0 0.0 0.0 1
0.0384615384615 0.0 0.0 6
0.0769230769231 0.0 0.0 6
0.115384615385 0.0 0.0 6
0.153846153846 0.0 0.0 6
0.192307692308 0.0 0.0 6
0.230769230769 0.0 0.0 6
0.269230769231 0.0 0.0 6
0.307692307692 0.0 0.0 6
0.346153846154 0.0 0.0 6
0.384615384615 0.0 0.0 6
0.423076923077 0.0 0.0 6
0.461538461538 0.0 0.0 6
0.5 0.0 0.0 3
0.0384615384615 0.0384615384615 0.0 6
0.0769230769231 0.0384615384615 0.0 12
0.115384615385 0.0384615384615 0.0 12
0.153846153846 0.0384615384615 0.0 12
0.192307692308 0.0384615384615 0.0 12
0.230769230769 0.0384615384615 0.0 12
0.269230769231 0.0384615384615 0.0 12
0.307692307692 0.0384615384615 0.0 12
0.346153846154 0.0384615384615 0.0 12
0.384615384615 0.0384615384615 0.0 12
0.423076923077 0.0384615384615 0.0 12
0.461538461538 0.0384615384615 0.0 12
0.0769230769231 0.0769230769231 0.0 6
0.115384615385 0.0769230769231 0.0 12
0.153846153846 0.0769230769231 0.0 12
0.192307692308 0.0769230769231 0.0 12
0.230769230769 0.0769230769231 0.0 12
0.269230769231 0.0769230769231 0.0 12
0.307692307692 0.0769230769231 0.0 12
0.346153846154 0.0769230769231 0.0 12
0.384615384615 0.0769230769231 0.0 12
0.423076923077 0.0769230769231 0.0 12
0.461538461538 0.0769230769231 0.0 6
0.115384615385 0.115384615385 0.0 6
0.153846153846 0.115384615385 0.0 12
0.192307692308 0.115384615385 0.0 12
0.230769230769 0.115384615385 0.0 12
0.269230769231 0.115384615385 0.0 12
0.307692307692 0.115384615385 0.0 12
0.346153846154 0.115384615385 0.0 12
0.384615384615 0.115384615385 0.0 12
0.423076923077 0.115384615385 0.0 12
0.153846153846 0.153846153846 0.0 6
0.192307692308 0.153846153846 0.0 12
0.230769230769 0.153846153846 0.0 12
0.269230769231 0.153846153846 0.0 12
0.307692307692 0.153846153846 0.0 12
0.346153846154 0.153846153846 0.0 12
0.384615384615 0.153846153846 0.0 12
0.423076923077 0.153846153846 0.0 6
0.192307692308 0.192307692308 0.0 6
0.230769230769 0.192307692308 0.0 12
0.269230769231 0.192307692308 0.0 12
0.307692307692 0.192307692308 0.0 12
0.346153846154 0.192307692308 0.0 12
0.384615384615 0.192307692308 0.0 12
0.230769230769 0.230769230769 0.0 6
0.269230769231 0.230769230769 0.0 12
0.307692307692 0.230769230769 0.0 12
0.346153846154 0.230769230769 0.0 12
0.384615384615 0.230769230769 0.0 6
0.269230769231 0.269230769231 0.0 6
0.307692307692 0.269230769231 0.0 12
0.346153846154 0.269230769231 0.0 12
0.307692307692 0.307692307692 0.0 6
0.346153846154 0.307692307692 0.0 6
0.0 0.0 0.333333333333 2
0.0384615384615 0.0 0.333333333333 12
0.0769230769231 0.0 0.333333333333 12
0.115384615385 0.0 0.333333333333 12
0.153846153846 0.0 0.333333333333 12
0.192307692308 0.0 0.333333333333 12
0.230769230769 0.0 0.333333333333 12
0.269230769231 0.0 0.333333333333 12
0.307692307692 0.0 0.333333333333 12
0.346153846154 0.0 0.333333333333 12
0.384615384615 0.0 0.333333333333 12
0.423076923077 0.0 0.333333333333 12
0.461538461538 0.0 0.333333333333 12
0.5 0.0 0.333333333333 6
0.0384615384615 0.0384615384615 0.333333333333 12
0.0769230769231 0.0384615384615 0.333333333333 24
0.115384615385 0.0384615384615 0.333333333333 24
0.153846153846 0.0384615384615 0.333333333333 24
0.192307692308 0.0384615384615 0.333333333333 24
0.230769230769 0.0384615384615 0.333333333333 24
0.269230769231 0.0384615384615 0.333333333333 24
0.307692307692 0.0384615384615 0.333333333333 24
0.346153846154 0.0384615384615 0.333333333333 24
0.384615384615 0.0384615384615 0.333333333333 24
0.423076923077 0.0384615384615 0.333333333333 24
0.461538461538 0.0384615384615 0.333333333333 24
0.0769230769231 0.0769230769231 0.333333333333 12
0.115384615385 0.0769230769231 0.333333333333 24
0.153846153846 0.0769230769231 0.333333333333 24
0.192307692308 0.0769230769231 0.333333333333 24
0.230769230769 0.0769230769231 0.333333333333 24
0.269230769231 0.0769230769231 0.333333333333 24
0.307692307692 0.0769230769231 0.333333333333 24
0.346153846154 0.0769230769231 0.333333333333 24
0.384615384615 0.0769230769231 0.333333333333 24
0.423076923077 0.0769230769231 0.333333333333 24
0.461538461538 0.0769230769231 0.333333333333 12
0.115384615385 0.115384615385 0.333333333333 12
0.153846153846 0.115384615385 0.333333333333 24
0.192307692308 0.115384615385 0.333333333333 24
0.230769230769 0.115384615385 0.333333333333 24
0.269230769231 0.115384615385 0.333333333333 24
0.307692307692 0.115384615385 0.333333333333 24
0.346153846154 0.115384615385 0.333333333333 24
0.384615384615 0.115384615385 0.333333333333 24
0.423076923077 0.115384615385 0.333333333333 24
0.153846153846 0.153846153846 0.333333333333 12
0.192307692308 0.153846153846 0.333333333333 24
0.230769230769 0.153846153846 0.333333333333 24
0.269230769231 0.153846153846 0.333333333333 24
0.307692307692 0.153846153846 0.333333333333 24
0.346153846154 0.153846153846 0.333333333333 24
0.384615384615 0.153846153846 0.333333333333 24
0.423076923077 0.153846153846 0.333333333333 12
0.192307692308 0.192307692308 0.333333333333 12
0.230769230769 0.192307692308 0.333333333333 24
0.269230769231 0.192307692308 0.333333333333 24
0.307692307692 0.192307692308 0.333333333333 24
0.346153846154 0.192307692308 0.333333333333 24
0.384615384615 0.192307692308 0.333333333333 24
0.230769230769 0.230769230769 0.333333333333 12
0.269230769231 0.230769230769 0.333333333333 24
0.307692307692 0.230769230769 0.333333333333 24
0.346153846154 0.230769230769 0.333333333333 24
0.384615384615 0.230769230769 0.333333333333 12
0.269230769231 0.269230769231 0.333333333333 12
0.307692307692 0.269230769231 0.333333333333 24
0.346153846154 0.269230769231 0.333333333333 24
0.307692307692 0.307692307692 0.333333333333 12
0.346153846154 0.307692307692 0.333333333333 12
