k-points along high symmetry lines
20
Line-mode
rec
    0.0  0.0  0.0    \Gamma
    0.5  0.0  0.0    M

    0.5  0.0  0.0    M
    0.333333333333  0.333333333333  0.0    K

    0.333333333333  0.333333333333  0.0    K
    0.0  0.0  0.0    \Gamma

    0.0  0.0  0.0    \Gamma
    0.0  0.0  0.5    A

    0.0  0.0  0.5    A
    0.5  0.0  0.5    L

    0.5  0.0  0.5    L
    0.333333333333  0.333333333333  0.5    H

    0.333333333333  0.333333333333  0.5    H
    0.0  0.0  0.5    A

    0.5  0.0  0.5    L
    0.5  0.0  0.0    M

    0.333333333333  0.333333333333  0.0    K
    0.333333333333  0.333333333333  0.5    H

