pymatgen 4.7.6+ generated KPOINTS with grid density = 217 / atom
0
Gamma
8 8 1
