Mo1 S2                                  
   1.00000000000000     
     3.1845729999999999    0.0000000000000000    0.0000000000000000
    -1.5922870000000000    2.7579210000000001    0.0000000000000000
     0.0000000000000000    0.0000000000000000   25.0000000000000000
   Mo   S 
     1     2
Direct
  0.6632832957623376  0.3332980414015105  0.1588006240538334
  0.3301846152679446  0.6668754119609438  0.0963509890505924
  0.3298650889697161  0.6664935466375428  0.2212183868955771
 
  0.00000000E+00  0.00000000E+00  0.00000000E+00
  0.00000000E+00  0.00000000E+00  0.00000000E+00
  0.00000000E+00  0.00000000E+00  0.00000000E+00
