ALGO = Normal
EDIFF = 5e-05
ENCUT = 520
#IBRION = 1
ICHARG = 2
#ISIF = 2
ISMEAR = 0
#ISPIN = 2
#LORBIT = 11
LREAL = .FALSE.
LWAVE = .FALSE.
NELM = 200
#NSW = 99
PREC = Accurate
SIGMA = 0.05
LCHARG = .TRUE.
#EDIFFG = -0.02
IVDW = 12
NPAR = 4
LDIPOL = .TRUE.
IDIPOL = 3
DIPOL = 0.5 0.5 0.495
#LVHAR = .TRUE.
NGYF = 80
LAECHG = .TRUE.
NGZF = 600
NGXF = 80
