pymatgen 4.7.6+ generated KPOINTS with grid density = 777 / atom
0
Gamma
4 4 4
#2018-09-02-19:47:24: KPOINTS of step_1_str_opt
#2018-09-02-19:47:24: KPOINTS of step_2_consecutive_str_opt
