KPOINTS 
 21
Line Mode
rec
   0.0000  0.0000  0.0000  !G
  -0.3333  0.6667  0.0000  !K

  -0.3333  0.6667  0.0000  !K
   0.0000  0.5000  0.0000  !M

   0.0000  0.5000  0.0000  !M
   0.0000  0.0000  0.0000  !G

