ALGO = Normal
EDIFF = 1.0E-4
ENCUT = 520
#IBRION = 2
ICHARG = 2
#ISIF = 2
ISMEAR = 0
#ISPIN = 2
#LORBIT = 11
LREAL = Auto
LWAVE = .FALSE.
NELM = 100
#NSW = 99
PREC = Accurate
SIGMA = 0.05
LCHARG = .TRUE.
#EDIFFG = -0.02
IVDW = 12
NPAR = 4
#2018-09-02-19:47:24: INCAR of step_1_str_opt
LDIPOL = .TRUE.
IDIPOL = 3
#2018-09-02-19:47:24: INCAR of step_2_consecutive_str_opt
#LVHAR = .TRUE.
#2018-09-02-19:47:24: INCAR of step_3_scf
#2018-09-02-19:47:25: INCAR of step_8_bader_charge
