Si8                                     
   1.00000000000000     
     5.4687279999999996    0.0000000000000000    0.0000000000000000
     0.0000000000000000    5.4687279999999996    0.0000000000000000
     0.0000000000000000    0.0000000000000000    5.4687279999999996
   Si
     8
Direct
  0.2479506734664906  0.7512354532086389  0.2640986277673817
  0.7479858673755907  0.7512824266946201  0.7460774901544749
  0.2479092580731532  0.2512899807476316  0.7467102748496481
  0.7478246896996219  0.2511999936972884  0.2641161087567074
  0.4977823102740493  0.5011240303148659  0.5130177848282057
  0.4980514897523776  0.0010411432126307 -0.0035461845513059
  0.9977174361806611  0.5013801035810256 -0.0034153404099943
  0.9981112751780576  0.0014468685433112  0.5129412386048883
 
  0.00000000E+00  0.00000000E+00  0.00000000E+00
  0.00000000E+00  0.00000000E+00  0.00000000E+00
  0.00000000E+00  0.00000000E+00  0.00000000E+00
  0.00000000E+00  0.00000000E+00  0.00000000E+00
  0.00000000E+00  0.00000000E+00  0.00000000E+00
  0.00000000E+00  0.00000000E+00  0.00000000E+00
  0.00000000E+00  0.00000000E+00  0.00000000E+00
  0.00000000E+00  0.00000000E+00  0.00000000E+00
