ALGO = Fast
EDIFF = 1.0E-4
ENCUT = 520
IBRION = 2
ICHARG = 1
ISIF = 2
ISMEAR = 0
#ISPIN = 2
#LORBIT = 11
LREAL = Auto
LWAVE = False
NELM = 100
NSW = 99
PREC = Accurate
SIGMA = 0.05
LCHARG = .TRUE.
EDIFFG = -0.03
IVDW = 12
NPAR = 4
SYMPREC = 1e-06
