Non SCF run on uniform grid
216
Reciprocal
0.0 0.0 0.0 1
0.0909090909091 0.0 0.0 4
0.181818181818 0.0 0.0 4
0.272727272727 0.0 0.0 4
0.363636363636 0.0 0.0 4
0.454545454545 0.0 0.0 4
0.0909090909091 0.0909090909091 0.0 2
0.181818181818 0.0909090909091 0.0 4
0.272727272727 0.0909090909091 0.0 4
0.363636363636 0.0909090909091 0.0 4
0.454545454545 0.0909090909091 0.0 4
-0.454545454545 0.0909090909091 0.0 4
-0.363636363636 0.0909090909091 0.0 4
-0.272727272727 0.0909090909091 0.0 4
-0.181818181818 0.0909090909091 0.0 4
-0.0909090909091 0.0909090909091 0.0 2
0.181818181818 0.181818181818 0.0 2
0.272727272727 0.181818181818 0.0 4
0.363636363636 0.181818181818 0.0 4
0.454545454545 0.181818181818 0.0 4
-0.454545454545 0.181818181818 0.0 4
-0.363636363636 0.181818181818 0.0 4
-0.272727272727 0.181818181818 0.0 4
-0.181818181818 0.181818181818 0.0 2
0.272727272727 0.272727272727 0.0 2
0.363636363636 0.272727272727 0.0 4
0.454545454545 0.272727272727 0.0 4
-0.454545454545 0.272727272727 0.0 4
-0.363636363636 0.272727272727 0.0 4
-0.272727272727 0.272727272727 0.0 2
0.363636363636 0.363636363636 0.0 2
0.454545454545 0.363636363636 0.0 4
-0.454545454545 0.363636363636 0.0 4
-0.363636363636 0.363636363636 0.0 2
0.454545454545 0.454545454545 0.0 2
-0.454545454545 0.454545454545 0.0 2
0.0 0.0 0.0909090909091 2
0.0909090909091 0.0 0.0909090909091 8
0.181818181818 0.0 0.0909090909091 8
0.272727272727 0.0 0.0909090909091 8
0.363636363636 0.0 0.0909090909091 8
0.454545454545 0.0 0.0909090909091 8
0.0909090909091 0.0909090909091 0.0909090909091 4
0.181818181818 0.0909090909091 0.0909090909091 8
0.272727272727 0.0909090909091 0.0909090909091 8
0.363636363636 0.0909090909091 0.0909090909091 8
0.454545454545 0.0909090909091 0.0909090909091 8
-0.454545454545 0.0909090909091 0.0909090909091 8
-0.363636363636 0.0909090909091 0.0909090909091 8
-0.272727272727 0.0909090909091 0.0909090909091 8
-0.181818181818 0.0909090909091 0.0909090909091 8
-0.0909090909091 0.0909090909091 0.0909090909091 4
0.181818181818 0.181818181818 0.0909090909091 4
0.272727272727 0.181818181818 0.0909090909091 8
0.363636363636 0.181818181818 0.0909090909091 8
0.454545454545 0.181818181818 0.0909090909091 8
-0.454545454545 0.181818181818 0.0909090909091 8
-0.363636363636 0.181818181818 0.0909090909091 8
-0.272727272727 0.181818181818 0.0909090909091 8
-0.181818181818 0.181818181818 0.0909090909091 4
0.272727272727 0.272727272727 0.0909090909091 4
0.363636363636 0.272727272727 0.0909090909091 8
0.454545454545 0.272727272727 0.0909090909091 8
-0.454545454545 0.272727272727 0.0909090909091 8
-0.363636363636 0.272727272727 0.0909090909091 8
-0.272727272727 0.272727272727 0.0909090909091 4
0.363636363636 0.363636363636 0.0909090909091 4
0.454545454545 0.363636363636 0.0909090909091 8
-0.454545454545 0.363636363636 0.0909090909091 8
-0.363636363636 0.363636363636 0.0909090909091 4
0.454545454545 0.454545454545 0.0909090909091 4
-0.454545454545 0.454545454545 0.0909090909091 4
0.0 0.0 0.181818181818 2
0.0909090909091 0.0 0.181818181818 8
0.181818181818 0.0 0.181818181818 8
0.272727272727 0.0 0.181818181818 8
0.363636363636 0.0 0.181818181818 8
0.454545454545 0.0 0.181818181818 8
0.0909090909091 0.0909090909091 0.181818181818 4
0.181818181818 0.0909090909091 0.181818181818 8
0.272727272727 0.0909090909091 0.181818181818 8
0.363636363636 0.0909090909091 0.181818181818 8
0.454545454545 0.0909090909091 0.181818181818 8
-0.454545454545 0.0909090909091 0.181818181818 8
-0.363636363636 0.0909090909091 0.181818181818 8
-0.272727272727 0.0909090909091 0.181818181818 8
-0.181818181818 0.0909090909091 0.181818181818 8
-0.0909090909091 0.0909090909091 0.181818181818 4
0.181818181818 0.181818181818 0.181818181818 4
0.272727272727 0.181818181818 0.181818181818 8
0.363636363636 0.181818181818 0.181818181818 8
0.454545454545 0.181818181818 0.181818181818 8
-0.454545454545 0.181818181818 0.181818181818 8
-0.363636363636 0.181818181818 0.181818181818 8
-0.272727272727 0.181818181818 0.181818181818 8
-0.181818181818 0.181818181818 0.181818181818 4
0.272727272727 0.272727272727 0.181818181818 4
0.363636363636 0.272727272727 0.181818181818 8
0.454545454545 0.272727272727 0.181818181818 8
-0.454545454545 0.272727272727 0.181818181818 8
-0.363636363636 0.272727272727 0.181818181818 8
-0.272727272727 0.272727272727 0.181818181818 4
0.363636363636 0.363636363636 0.181818181818 4
0.454545454545 0.363636363636 0.181818181818 8
-0.454545454545 0.363636363636 0.181818181818 8
-0.363636363636 0.363636363636 0.181818181818 4
0.454545454545 0.454545454545 0.181818181818 4
-0.454545454545 0.454545454545 0.181818181818 4
0.0 0.0 0.272727272727 2
0.0909090909091 0.0 0.272727272727 8
0.181818181818 0.0 0.272727272727 8
0.272727272727 0.0 0.272727272727 8
0.363636363636 0.0 0.272727272727 8
0.454545454545 0.0 0.272727272727 8
0.0909090909091 0.0909090909091 0.272727272727 4
0.181818181818 0.0909090909091 0.272727272727 8
0.272727272727 0.0909090909091 0.272727272727 8
0.363636363636 0.0909090909091 0.272727272727 8
0.454545454545 0.0909090909091 0.272727272727 8
-0.454545454545 0.0909090909091 0.272727272727 8
-0.363636363636 0.0909090909091 0.272727272727 8
-0.272727272727 0.0909090909091 0.272727272727 8
-0.181818181818 0.0909090909091 0.272727272727 8
-0.0909090909091 0.0909090909091 0.272727272727 4
0.181818181818 0.181818181818 0.272727272727 4
0.272727272727 0.181818181818 0.272727272727 8
0.363636363636 0.181818181818 0.272727272727 8
0.454545454545 0.181818181818 0.272727272727 8
-0.454545454545 0.181818181818 0.272727272727 8
-0.363636363636 0.181818181818 0.272727272727 8
-0.272727272727 0.181818181818 0.272727272727 8
-0.181818181818 0.181818181818 0.272727272727 4
0.272727272727 0.272727272727 0.272727272727 4
0.363636363636 0.272727272727 0.272727272727 8
0.454545454545 0.272727272727 0.272727272727 8
-0.454545454545 0.272727272727 0.272727272727 8
-0.363636363636 0.272727272727 0.272727272727 8
-0.272727272727 0.272727272727 0.272727272727 4
0.363636363636 0.363636363636 0.272727272727 4
0.454545454545 0.363636363636 0.272727272727 8
-0.454545454545 0.363636363636 0.272727272727 8
-0.363636363636 0.363636363636 0.272727272727 4
0.454545454545 0.454545454545 0.272727272727 4
-0.454545454545 0.454545454545 0.272727272727 4
0.0 0.0 0.363636363636 2
0.0909090909091 0.0 0.363636363636 8
0.181818181818 0.0 0.363636363636 8
0.272727272727 0.0 0.363636363636 8
0.363636363636 0.0 0.363636363636 8
0.454545454545 0.0 0.363636363636 8
0.0909090909091 0.0909090909091 0.363636363636 4
0.181818181818 0.0909090909091 0.363636363636 8
0.272727272727 0.0909090909091 0.363636363636 8
0.363636363636 0.0909090909091 0.363636363636 8
0.454545454545 0.0909090909091 0.363636363636 8
-0.454545454545 0.0909090909091 0.363636363636 8
-0.363636363636 0.0909090909091 0.363636363636 8
-0.272727272727 0.0909090909091 0.363636363636 8
-0.181818181818 0.0909090909091 0.363636363636 8
-0.0909090909091 0.0909090909091 0.363636363636 4
0.181818181818 0.181818181818 0.363636363636 4
0.272727272727 0.181818181818 0.363636363636 8
0.363636363636 0.181818181818 0.363636363636 8
0.454545454545 0.181818181818 0.363636363636 8
-0.454545454545 0.181818181818 0.363636363636 8
-0.363636363636 0.181818181818 0.363636363636 8
-0.272727272727 0.181818181818 0.363636363636 8
-0.181818181818 0.181818181818 0.363636363636 4
0.272727272727 0.272727272727 0.363636363636 4
0.363636363636 0.272727272727 0.363636363636 8
0.454545454545 0.272727272727 0.363636363636 8
-0.454545454545 0.272727272727 0.363636363636 8
-0.363636363636 0.272727272727 0.363636363636 8
-0.272727272727 0.272727272727 0.363636363636 4
0.363636363636 0.363636363636 0.363636363636 4
0.454545454545 0.363636363636 0.363636363636 8
-0.454545454545 0.363636363636 0.363636363636 8
-0.363636363636 0.363636363636 0.363636363636 4
0.454545454545 0.454545454545 0.363636363636 4
-0.454545454545 0.454545454545 0.363636363636 4
0.0 0.0 0.454545454545 2
0.0909090909091 0.0 0.454545454545 8
0.181818181818 0.0 0.454545454545 8
0.272727272727 0.0 0.454545454545 8
0.363636363636 0.0 0.454545454545 8
0.454545454545 0.0 0.454545454545 8
0.0909090909091 0.0909090909091 0.454545454545 4
0.181818181818 0.0909090909091 0.454545454545 8
0.272727272727 0.0909090909091 0.454545454545 8
0.363636363636 0.0909090909091 0.454545454545 8
0.454545454545 0.0909090909091 0.454545454545 8
-0.454545454545 0.0909090909091 0.454545454545 8
-0.363636363636 0.0909090909091 0.454545454545 8
-0.272727272727 0.0909090909091 0.454545454545 8
-0.181818181818 0.0909090909091 0.454545454545 8
-0.0909090909091 0.0909090909091 0.454545454545 4
0.181818181818 0.181818181818 0.454545454545 4
0.272727272727 0.181818181818 0.454545454545 8
0.363636363636 0.181818181818 0.454545454545 8
0.454545454545 0.181818181818 0.454545454545 8
-0.454545454545 0.181818181818 0.454545454545 8
-0.363636363636 0.181818181818 0.454545454545 8
-0.272727272727 0.181818181818 0.454545454545 8
-0.181818181818 0.181818181818 0.454545454545 4
0.272727272727 0.272727272727 0.454545454545 4
0.363636363636 0.272727272727 0.454545454545 8
0.454545454545 0.272727272727 0.454545454545 8
-0.454545454545 0.272727272727 0.454545454545 8
-0.363636363636 0.272727272727 0.454545454545 8
-0.272727272727 0.272727272727 0.454545454545 4
0.363636363636 0.363636363636 0.454545454545 4
0.454545454545 0.363636363636 0.454545454545 8
-0.454545454545 0.363636363636 0.454545454545 8
-0.363636363636 0.363636363636 0.454545454545 4
0.454545454545 0.454545454545 0.454545454545 4
-0.454545454545 0.454545454545 0.454545454545 4
