W12 Se24                                
   1.00000000000000     
    11.5005559999999996    0.0000000000000000    0.0000000000000000
    -5.7502779999999998    9.9597730000000002    0.0000000000000000
     0.0000000000000000    0.0000000000000000   29.4888000000000012
   W    Se
    12    24
Direct
  0.6666711621568311  0.5000042189799103  0.3941230000000004
  0.5000047160372176  0.6666711592664285  0.3941230000000004
  0.6666711621568311  0.0000042189799103  0.3941230000000004
  0.5000047160372176  0.1666711592664285  0.3941230000000004
  0.3333375808317172  0.3333376358910201  0.3941230000000004
  0.1666711621568311  0.5000042189799103  0.3941230000000004
  0.0000047160372176  0.6666711592664285  0.3941230000000004
  0.3333375808317172  0.8333376358910201  0.3941230000000004
  0.1666711621568311  0.0000042189799103  0.3941230000000004
  0.0000047160372176  0.1666711592664285  0.3941230000000004
  0.8333375808317172  0.3333376358910201  0.3941230000000004
  0.8333375808317172  0.8333376358910201  0.3941230000000004
  0.6666654363582580  0.6666645001283484  0.3372196669343239
  0.4999985873575170  0.8333310117881609  0.3372197667391745
  0.6666654363582580  0.1666645001283484  0.3372196669343239
  0.4999985873575170  0.3333310117881609  0.3372197667391745
  0.3333317467713499  0.4999979810148147  0.3372197575375750
  0.1666654363582580  0.6666645001283484  0.3372196669343239
  0.9999985873575170  0.8333310117881609  0.3372197667391745
  0.3333317467713499  0.9999979810148147  0.3372197575375750
  0.1666654363582580  0.1666645001283484  0.3372196669343239
  0.9999985873575170  0.3333310117881609  0.3372197667391745
  0.8333317467713499  0.4999979810148147  0.3372197575375750
  0.8333317467713499  0.9999979810148147  0.3372197575375750
  0.6666654363582580  0.6666645001283484  0.4510263330656770
  0.4999985873575170  0.8333310117881609  0.4510262332608264
  0.6666654363582580  0.1666645001283484  0.4510263330656770
  0.4999985873575170  0.3333310117881609  0.4510262332608264
  0.3333317467713499  0.4999979810148147  0.4510262424624258
  0.1666654363582580  0.6666645001283484  0.4510263330656770
  0.9999985873575170  0.8333310117881609  0.4510262332608264
  0.3333317467713499  0.9999979810148147  0.4510262424624258
  0.1666654363582580  0.1666645001283484  0.4510263330656770
  0.9999985873575170  0.3333310117881609  0.4510262332608264
  0.8333317467713499  0.4999979810148147  0.4510262424624258
  0.8333317467713499  0.9999979810148147  0.4510262424624258
 
  0.00000000E+00  0.00000000E+00  0.00000000E+00
  0.00000000E+00  0.00000000E+00  0.00000000E+00
  0.00000000E+00  0.00000000E+00  0.00000000E+00
  0.00000000E+00  0.00000000E+00  0.00000000E+00
  0.00000000E+00  0.00000000E+00  0.00000000E+00
  0.00000000E+00  0.00000000E+00  0.00000000E+00
  0.00000000E+00  0.00000000E+00  0.00000000E+00
  0.00000000E+00  0.00000000E+00  0.00000000E+00
  0.00000000E+00  0.00000000E+00  0.00000000E+00
  0.00000000E+00  0.00000000E+00  0.00000000E+00
  0.00000000E+00  0.00000000E+00  0.00000000E+00
  0.00000000E+00  0.00000000E+00  0.00000000E+00
  0.00000000E+00  0.00000000E+00  0.00000000E+00
  0.00000000E+00  0.00000000E+00  0.00000000E+00
  0.00000000E+00  0.00000000E+00  0.00000000E+00
  0.00000000E+00  0.00000000E+00  0.00000000E+00
  0.00000000E+00  0.00000000E+00  0.00000000E+00
  0.00000000E+00  0.00000000E+00  0.00000000E+00
  0.00000000E+00  0.00000000E+00  0.00000000E+00
  0.00000000E+00  0.00000000E+00  0.00000000E+00
  0.00000000E+00  0.00000000E+00  0.00000000E+00
  0.00000000E+00  0.00000000E+00  0.00000000E+00
  0.00000000E+00  0.00000000E+00  0.00000000E+00
  0.00000000E+00  0.00000000E+00  0.00000000E+00
  0.00000000E+00  0.00000000E+00  0.00000000E+00
  0.00000000E+00  0.00000000E+00  0.00000000E+00
  0.00000000E+00  0.00000000E+00  0.00000000E+00
  0.00000000E+00  0.00000000E+00  0.00000000E+00
  0.00000000E+00  0.00000000E+00  0.00000000E+00
  0.00000000E+00  0.00000000E+00  0.00000000E+00
  0.00000000E+00  0.00000000E+00  0.00000000E+00
  0.00000000E+00  0.00000000E+00  0.00000000E+00
  0.00000000E+00  0.00000000E+00  0.00000000E+00
  0.00000000E+00  0.00000000E+00  0.00000000E+00
  0.00000000E+00  0.00000000E+00  0.00000000E+00
  0.00000000E+00  0.00000000E+00  0.00000000E+00
