pymatgen 4.7.6+ generated KPOINTS with grid density = 454 / atom
0
Gamma
12 12 1
